//Number of items      		
139
//Bin Capacity      
1000
//Known Best Solution  		
60
//Weight of Item
     696         1
     694         1
     689         2
     683         1
     680         1
     678         1
     674         1
     672         1
     670         1
     669         1
     668         1
     666         1
     664         1
     661         1
     646         2
     645         1
     642         1
     639         1
     627         1
     607         1
     606         1
     600         1
     597         1
     595         2
     585         1
     577         1
     575         1
     573         1
     572         1
     569         1
     546         1
     539         1
     534         2
     528         1
     523         1
     522         2
     507         2
     502         2
     501         3
     492         1
     484         2
     478         1
     470         1
     467         1
     464         1
     458         1
     454         1
     453         1
     449         1
     447         1
     446         1
     434         1
     432         1
     430         2
     429         1
     428         1
     426         1
     421         1
     416         1
     412         1
     405         1
     403         1
     402         1
     400         1
     391         1
     389         1
     387         1
     383         1
     382         2
     379         1
     377         1
     374         1
     365         1
     364         1
     362         1
     354         1
     348         1
     346         1
     345         1
     340         1
     338         1
     337         1
     331         1
     329         1
     318         1
     315         2
     306         1
     304         1
     301         1
     299         1
     288         1
     287         2
     285         1
     283         1
     270         1
     266         1
     262         1
     261         1
     259         2
     255         1
     254         1
     249         1
     246         1
     245         1
     232         2
     229         1
     214         1
     213         1
     207         1
     204         1
     196         2
     187         1
     186         1
     178         1
     170         1
     159         1
     155         1
     152         1
     138         2
     128         1
     126         1
     123         1
     118         2
     117         1
     115         1
     111         2
      98         1
      93         1
      91         1
      89         1
      87         1
      76         1
      68         1
      64         1
      55         1
      15         2
      14         1
       9         1
       6         1